3 
4 
5  22 37 52 
6  07 22 34 41 49 56 
7  02 10 17 25 32 40 47 55 
8  02 10 17 25 32 40 47 55 
9  02 10 17 25 32 40 47 55 
10  02 10 17 25 32 40 47 55 
11  02 10 17 25 32 40 47 55 
12  02 10 17 25 32 40 47 55 
13  02 11 19 26 33 41 48 56 
14  03 11 18 26 33 41 48 56 
15  03 11 18 25 33 40 48 55 
16  03 10 18 25 33 40 48 55 
17  03 10 18 25 33 40 48 55 
18  03 10 18 25 33 40 48 55 
19  03 09 16 23 32 40 48 55 
20  03 11 18 25 33 40 53 
21  08 23 38 53 
22  08 23 36 51 
23 
